NearestNeighbour solution for TSP problem on pr439.tsp

1
3
2
52
51
50
48
47
49
46
45
43
41
40
11
10
9
8
7
6
5
4
44
42
39
38
37
36
35
34
33
17
16
15
14
13
12
57
58
78
77
87
86
59
60
61
76
75
62
32
31
30
29
27
26
28
63
73
74
64
25
23
24
22
21
66
67
68
69
70
71
89
88
72
90
91
104
105
106
107
108
109
146
144
147
148
145
185
190
191
184
192
183
182
181
180
179
178
177
159
158
157
156
155
154
153
151
152
143
150
142
141
140
139
138
137
136
135
134
162
163
164
165
167
166
169
170
168
171
172
174
173
204
203
202
201
200
199
198
197
196
195
194
193
221
220
219
218
217
216
215
214
213
212
211
210
250
251
209
253
252
249
248
247
246
245
244
243
242
241
240
239
238
237
236
235
234
233
222
223
224
273
274
275
276
277
278
279
294
295
296
297
298
299
300
333
334
335
336
337
338
339
360
361
362
363
364
365
366
367
368
369
378
385
386
387
388
401
400
416
415
419
420
421
414
389
390
380
379
377
376
345
346
348
349
347
350
351
353
354
352
355
356
358
359
357
292
293
291
290
289
288
287
286
285
280
232
231
225
188
189
187
230
281
282
229
228
283
284
344
343
342
341
373
372
371
383
382
384
394
395
393
398
397
396
399
392
391
381
375
374
340
226
227
186
149
83
84
85
53
54
55
56
82
81
80
79
110
111
112
113
114
103
115
117
120
121
119
118
116
122
123
125
126
124
127
129
130
131
132
133
128
99
98
97
96
95
100
101
94
93
92
102
65
20
19
18
160
161
175
176
205
206
207
208
255
254
316
315
314
313
312
311
310
309
308
307
264
263
262
261
260
259
258
257
256
318
317
319
320
321
322
323
324
325
326
327
328
329
331
330
303
302
304
305
306
267
266
265
268
269
270
271
272
301
332
370
402
404
405
417
418
428
429
431
406
407
413
412
423
422
427
430
424
425
410
411
409
408
403
426
433
432
434
438
437
436
435
439
1

Tour Length: 131211
